\* Source Pyomo model name=unknown *\

min 
x51:
+1 x1
+1 x10
+1 x11
+1 x12
+1 x13
+1 x14
+1 x15
+1 x16
+1 x17
+1 x18
+1 x19
+1 x2
+1 x20
+1 x21
+1 x22
+1 x23
+1 x24
+1 x25
+1 x26
+1 x27
+1 x28
+1 x29
+1 x3
+1 x30
+1 x31
+1 x32
+1 x33
+1 x34
+1 x35
+1 x36
+1 x37
+1 x38
+1 x39
+1 x4
+1 x40
+1 x41
+1 x42
+1 x43
+1 x44
+1 x45
+1 x46
+1 x47
+1 x48
+1 x49
+1 x5
+1 x50
+1 x6
+1 x7
+1 x8
+1 x9

s.t.

c_l_x52_:
+1 x1
+1 x2
>= 1

c_l_x53_:
+1 x2
+1 x3
>= 1

c_l_x54_:
+1 x1
+1 x4
>= 1

c_l_x55_:
+1 x4
+1 x5
>= 1

c_l_x56_:
+1 x4
+1 x6
>= 1

c_l_x57_:
+1 x5
+1 x7
>= 1

c_l_x58_:
+1 x1
+1 x8
>= 1

c_l_x59_:
+1 x6
+1 x9
>= 1

c_l_x60_:
+1 x10
+1 x4
>= 1

c_l_x61_:
+1 x11
+1 x4
>= 1

c_l_x62_:
+1 x11
+1 x12
>= 1

c_l_x63_:
+1 x11
+1 x13
>= 1

c_l_x64_:
+1 x10
+1 x14
>= 1

c_l_x65_:
+1 x11
+1 x15
>= 1

c_l_x66_:
+1 x16
+1 x6
>= 1

c_l_x67_:
+1 x13
+1 x17
>= 1

c_l_x68_:
+1 x18
+1 x5
>= 1

c_l_x69_:
+1 x10
+1 x19
>= 1

c_l_x70_:
+1 x20
+1 x3
>= 1

c_l_x71_:
+1 x1
+1 x21
>= 1

c_l_x72_:
+1 x11
+1 x22
>= 1

c_l_x73_:
+1 x20
+1 x23
>= 1

c_l_x74_:
+1 x19
+1 x24
>= 1

c_l_x75_:
+1 x25
+1 x5
>= 1

c_l_x76_:
+1 x26
+1 x5
>= 1

c_l_x77_:
+1 x13
+1 x27
>= 1

c_l_x78_:
+1 x24
+1 x28
>= 1

c_l_x79_:
+1 x1
+1 x29
>= 1

c_l_x80_:
+1 x18
+1 x30
>= 1

c_l_x81_:
+1 x16
+1 x31
>= 1

c_l_x82_:
+1 x25
+1 x32
>= 1

c_l_x83_:
+1 x12
+1 x33
>= 1

c_l_x84_:
+1 x29
+1 x34
>= 1

c_l_x85_:
+1 x14
+1 x35
>= 1

c_l_x86_:
+1 x28
+1 x36
>= 1

c_l_x87_:
+1 x27
+1 x37
>= 1

c_l_x88_:
+1 x20
+1 x38
>= 1

c_l_x89_:
+1 x36
+1 x39
>= 1

c_l_x90_:
+1 x16
+1 x40
>= 1

c_l_x91_:
+1 x41
+1 x8
>= 1

c_l_x92_:
+1 x2
+1 x42
>= 1

c_l_x93_:
+1 x29
+1 x43
>= 1

c_l_x94_:
+1 x27
+1 x44
>= 1

c_l_x95_:
+1 x22
+1 x45
>= 1

c_l_x96_:
+1 x3
+1 x46
>= 1

c_l_x97_:
+1 x47
+1 x6
>= 1

c_l_x98_:
+1 x17
+1 x48
>= 1

c_l_x99_:
+1 x45
+1 x49
>= 1

c_l_x100_:
+1 x43
+1 x50
>= 1

c_e_ONE_VAR_CONSTANT: 
ONE_VAR_CONSTANT = 1.0

bounds
   0 <= x1 <= 1
   0 <= x2 <= 1
   0 <= x3 <= 1
   0 <= x4 <= 1
   0 <= x5 <= 1
   0 <= x6 <= 1
   0 <= x7 <= 1
   0 <= x8 <= 1
   0 <= x9 <= 1
   0 <= x10 <= 1
   0 <= x11 <= 1
   0 <= x12 <= 1
   0 <= x13 <= 1
   0 <= x14 <= 1
   0 <= x15 <= 1
   0 <= x16 <= 1
   0 <= x17 <= 1
   0 <= x18 <= 1
   0 <= x19 <= 1
   0 <= x20 <= 1
   0 <= x21 <= 1
   0 <= x22 <= 1
   0 <= x23 <= 1
   0 <= x24 <= 1
   0 <= x25 <= 1
   0 <= x26 <= 1
   0 <= x27 <= 1
   0 <= x28 <= 1
   0 <= x29 <= 1
   0 <= x30 <= 1
   0 <= x31 <= 1
   0 <= x32 <= 1
   0 <= x33 <= 1
   0 <= x34 <= 1
   0 <= x35 <= 1
   0 <= x36 <= 1
   0 <= x37 <= 1
   0 <= x38 <= 1
   0 <= x39 <= 1
   0 <= x40 <= 1
   0 <= x41 <= 1
   0 <= x42 <= 1
   0 <= x43 <= 1
   0 <= x44 <= 1
   0 <= x45 <= 1
   0 <= x46 <= 1
   0 <= x47 <= 1
   0 <= x48 <= 1
   0 <= x49 <= 1
   0 <= x50 <= 1
general
  x1
  x2
  x3
  x4
  x5
  x6
  x7
  x8
  x9
  x10
  x11
  x12
  x13
  x14
  x15
  x16
  x17
  x18
  x19
  x20
  x21
  x22
  x23
  x24
  x25
  x26
  x27
  x28
  x29
  x30
  x31
  x32
  x33
  x34
  x35
  x36
  x37
  x38
  x39
  x40
  x41
  x42
  x43
  x44
  x45
  x46
  x47
  x48
  x49
  x50
end
